RobustCbss/GLKH-1.1/TMP/mEgtspf.pid5139.atsp
NAME : mEgtspf.pid5139.gtsp
TYPE : ATSP
DIMENSION : 50
EDGE_WEIGHT_TYPE : EXPLICIT
EDGE_WEIGHT_FORMAT : FULL_MATRIX
EDGE_WEIGHT_SECTION
999999 5368709 5368709 5368709 5368709 5368709 5368709 5368709 5368709 5368709 5368728 5368729 5368728 5368727 5368754 5368755 5368754 5368753 5368751 5368752 5368751 5368750 5368730 5368731 5368730 5368729 5368738 5368739 5368738 5368737 5368743 5368744 5368743 5368742 5368735 5368736 5368735 5368734 5368729 5368730 5368729 5368728 5368738 5368739 5368738 5368737 5368749 5368750 5368749 5368748 
5368709 999999 5368709 5368709 5368709 5368709 5368709 5368709 5368709 5368709 5368724 5368723 5368724 5368725 5368724 5368725 5368726 5368725 5368721 5368722 5368723 5368722 5368722 5368721 5368722 5368723 5368718 5368719 5368720 5368719 5368719 5368720 5368719 5368718 5368721 5368722 5368721 5368720 5368723 5368722 5368723 5368724 5368716 5368717 5368718 5368717 5368719 5368720 5368721 5368720 
5368709 5368709 999999 5368709 5368709 5368709 5368709 5368709 5368709 5368709 5368744 5368743 5368744 5368745 5368734 5368735 5368736 5368735 5368731 5368732 5368733 5368732 5368728 5368727 5368728 5368729 5368738 5368737 5368738 5368739 5368723 5368724 5368725 5368724 5368721 5368720 5368721 5368722 5368727 5368726 5368727 5368728 5368736 5368735 5368736 5368737 5368737 5368736 5368737 5368738 
5368709 5368709 5368709 999999 5368709 5368709 5368709 5368709 5368709 5368709 5368717 5368716 5368715 5368716 5368737 5368738 5368739 5368738 5368734 5368735 5368736 5368735 5368733 5368732 5368731 5368732 5368721 5368722 5368721 5368720 5368738 5368737 5368736 5368737 5368740 5368739 5368738 5368739 5368734 5368733 5368732 5368733 5368725 5368724 5368723 5368724 5368732 5368733 5368734 5368733 
5368709 5368709 5368709 5368709 999999 5368709 5368709 5368709 5368709 5368709 5368731 5368730 5368731 5368732 5368731 5368732 5368733 5368732 5368728 5368729 5368730 5368729 5368715 5368714 5368715 5368716 5368725 5368724 5368725 5368726 5368720 5368721 5368722 5368721 5368716 5368715 5368714 5368715 5368716 5368715 5368716 5368717 5368723 5368722 5368723 5368724 5368726 5368727 5368728 5368727 
5368709 5368709 5368709 5368709 5368709 999999 5368709 5368709 5368709 5368709 5368717 5368716 5368715 5368716 5368733 5368734 5368733 5368732 5368730 5368731 5368730 5368729 5368729 5368730 5368729 5368728 5368719 5368720 5368719 5368718 5368734 5368735 5368734 5368733 5368736 5368737 5368736 5368735 5368730 5368731 5368730 5368729 5368721 5368722 5368721 5368720 5368728 5368729 5368728 5368727 
5368709 5368709 5368709 5368709 5368709 5368709 999999 5368709 5368709 5368709 5368721 5368722 5368723 5368722 5368737 5368738 5368737 5368736 5368734 5368735 5368734 5368733 5368717 5368718 5368717 5368716 5368721 5368722 5368721 5368720 5368726 5368727 5368726 5368725 5368724 5368725 5368724 5368723 5368718 5368719 5368718 5368717 5368721 5368722 5368721 5368720 5368732 5368733 5368732 5368731 
5368709 5368709 5368709 5368709 5368709 5368709 5368709 999999 5368709 5368709 5368737 5368736 5368737 5368738 5368721 5368722 5368723 5368722 5368716 5368717 5368718 5368717 5368735 5368734 5368735 5368736 5368727 5368726 5368727 5368728 5368722 5368721 5368722 5368723 5368730 5368729 5368730 5368731 5368736 5368735 5368736 5368737 5368727 5368726 5368727 5368728 5368726 5368727 5368728 5368727 
5368709 5368709 5368709 5368709 5368709 5368709 5368709 5368709 999999 5368709 5368737 5368738 5368739 5368738 5368747 5368748 5368747 5368746 5368744 5368745 5368744 5368743 5368721 5368722 5368723 5368722 5368731 5368732 5368733 5368732 5368736 5368737 5368736 5368735 5368728 5368729 5368728 5368727 5368720 5368721 5368722 5368721 5368729 5368730 5368731 5368730 5368742 5368743 5368742 5368741 
5368709 5368709 5368709 5368709 5368709 5368709 5368709 5368709 5368709 999999 5368720 5368721 5368720 5368719 5368736 5368737 5368736 5368735 5368737 5368738 5368737 5368736 5368736 5368737 5368736 5368735 5368726 5368727 5368726 5368725 5368741 5368742 5368741 5368740 5368743 5368744 5368743 5368742 5368737 5368738 5368737 5368736 5368728 5368729 5368728 5368727 5368731 5368732 5368731 5368730 
5368709 5368709 5368709 5368709 5368709 5368709 5368709 5368709 5368709 5368709 999999 0 10737418 10737418 5368738 5368739 5368738 5368737 5368735 5368736 5368735 5368734 5368728 5368729 5368728 5368727 5368722 5368723 5368722 5368721 5368733 5368734 5368733 5368732 5368735 5368736 5368735 5368734 5368729 5368730 5368729 5368728 5368722 5368723 5368722 5368721 5368733 5368734 5368733 5368732 
5368709 5368709 5368709 5368709 5368709 5368709 5368709 5368709 5368709 5368709 10737418 999999 0 10737418 5368737 5368738 5368739 5368738 5368734 5368735 5368736 5368735 5368727 5368728 5368727 5368726 5368721 5368722 5368723 5368722 5368732 5368733 5368732 5368731 5368734 5368735 5368734 5368733 5368728 5368729 5368728 5368727 5368721 5368722 5368723 5368722 5368732 5368733 5368734 5368733 
5368709 5368709 5368709 5368709 5368709 5368709 5368709 5368709 5368709 5368709 10737418 10737418 999999 0 5368736 5368737 5368738 5368737 5368733 5368734 5368735 5368734 5368728 5368727 5368726 5368727 5368720 5368721 5368722 5368721 5368733 5368732 5368731 5368732 5368735 5368734 5368733 5368734 5368729 5368728 5368727 5368728 5368720 5368721 5368722 5368721 5368731 5368732 5368733 5368732 
5368709 5368709 5368709 5368709 5368709 5368709 5368709 5368709 5368709 5368709 0 10737418 10737418 999999 5368737 5368738 5368737 5368736 5368734 5368735 5368734 5368733 5368729 5368728 5368727 5368728 5368721 5368722 5368721 5368720 5368734 5368733 5368732 5368733 5368736 5368735 5368734 5368735 5368730 5368729 5368728 5368729 5368721 5368722 5368721 5368720 5368732 5368733 5368732 5368731 
5368709 5368709 5368709 5368709 5368709 5368709 5368709 5368709 5368709 5368709 5368738 5368737 5368736 5368737 999999 0 10737418 10737418 5368717 5368718 5368717 5368716 5368736 5368735 5368734 5368735 5368728 5368727 5368726 5368727 5368723 5368722 5368721 5368722 5368731 5368730 5368729 5368730 5368737 5368736 5368735 5368736 5368728 5368727 5368726 5368727 5368715 5368714 5368715 5368716 
5368709 5368709 5368709 5368709 5368709 5368709 5368709 5368709 5368709 5368709 5368737 5368736 5368737 5368738 10737418 999999 0 10737418 5368716 5368717 5368716 5368715 5368735 5368734 5368735 5368736 5368727 5368726 5368727 5368728 5368722 5368721 5368722 5368723 5368730 5368729 5368730 5368731 5368736 5368735 5368736 5368737 5368727 5368726 5368727 5368728 5368716 5368715 5368716 5368717 
5368709 5368709 5368709 5368709 5368709 5368709 5368709 5368709 5368709 5368709 5368738 5368737 5368738 5368739 10737418 10737418 999999 0 5368717 5368716 5368715 5368716 5368736 5368735 5368736 5368737 5368728 5368727 5368728 5368729 5368723 5368722 5368723 5368724 5368731 5368730 5368731 5368732 5368737 5368736 5368737 5368738 5368728 5368727 5368728 5368729 5368717 5368716 5368717 5368718 
5368709 5368709 5368709 5368709 5368709 5368709 5368709 5368709 5368709 5368709 5368739 5368738 5368737 5368738 0 10737418 10737418 999999 5368718 5368717 5368716 5368717 5368737 5368736 5368735 5368736 5368729 5368728 5368727 5368728 5368724 5368723 5368722 5368723 5368732 5368731 5368730 5368731 5368738 5368737 5368736 5368737 5368729 5368728 5368727 5368728 5368716 5368715 5368716 5368717 
5368709 5368709 5368709 5368709 5368709 5368709 5368709 5368709 5368709 5368709 5368735 5368734 5368733 5368734 5368715 5368716 5368717 5368716 999999 0 10737418 10737418 5368733 5368732 5368731 5368732 5368725 5368724 5368723 5368724 5368720 5368719 5368718 5368719 5368728 5368727 5368726 5368727 5368734 5368733 5368732 5368733 5368725 5368724 5368723 5368724 5368720 5368721 5368722 5368721 
5368709 5368709 5368709 5368709 5368709 5368709 5368709 5368709 5368709 5368709 5368734 5368733 5368734 5368735 5368716 5368717 5368718 5368717 10737418 999999 0 10737418 5368732 5368731 5368732 5368733 5368724 5368723 5368724 5368725 5368719 5368718 5368719 5368720 5368727 5368726 5368727 5368728 5368733 5368732 5368733 5368734 5368724 5368723 5368724 5368725 5368721 5368722 5368723 5368722 
5368709 5368709 5368709 5368709 5368709 5368709 5368709 5368709 5368709 5368709 5368735 5368734 5368735 5368736 5368717 5368716 5368717 5368718 10737418 10737418 999999 0 5368733 5368732 5368733 5368734 5368725 5368724 5368725 5368726 5368720 5368719 5368720 5368721 5368728 5368727 5368728 5368729 5368734 5368733 5368734 5368735 5368725 5368724 5368725 5368726 5368722 5368721 5368722 5368723 
5368709 5368709 5368709 5368709 5368709 5368709 5368709 5368709 5368709 5368709 5368736 5368735 5368734 5368735 5368716 5368715 5368716 5368717 0 10737418 10737418 999999 5368734 5368733 5368732 5368733 5368726 5368725 5368724 5368725 5368721 5368720 5368719 5368720 5368729 5368728 5368727 5368728 5368735 5368734 5368733 5368734 5368726 5368725 5368724 5368725 5368721 5368720 5368721 5368722 
5368709 5368709 5368709 5368709 5368709 5368709 5368709 5368709 5368709 5368709 5368726 5368727 5368728 5368727 5368736 5368737 5368736 5368735 5368733 5368734 5368733 5368732 999999 0 10737418 10737418 5368720 5368721 5368722 5368721 5368725 5368726 5368725 5368724 5368719 5368720 5368719 5368718 5368713 5368712 5368711 5368712 5368718 5368719 5368720 5368719 5368731 5368732 5368731 5368730 
5368709 5368709 5368709 5368709 5368709 5368709 5368709 5368709 5368709 5368709 5368727 5368728 5368729 5368728 5368735 5368736 5368737 5368736 5368732 5368733 5368734 5368733 10737418 999999 0 10737418 5368721 5368722 5368723 5368722 5368724 5368725 5368726 5368725 5368718 5368719 5368718 5368717 5368712 5368711 5368710 5368711 5368719 5368720 5368721 5368720 5368730 5368731 5368732 5368731 
5368709 5368709 5368709 5368709 5368709 5368709 5368709 5368709 5368709 5368709 5368728 5368727 5368728 5368729 5368734 5368735 5368736 5368735 5368731 5368732 5368733 5368732 10737418 10737418 999999 0 5368722 5368721 5368722 5368723 5368723 5368724 5368725 5368724 5368719 5368718 5368717 5368718 5368713 5368712 5368711 5368712 5368718 5368719 5368720 5368719 5368729 5368730 5368731 5368730 
5368709 5368709 5368709 5368709 5368709 5368709 5368709 5368709 5368709 5368709 5368727 5368726 5368727 5368728 5368735 5368736 5368735 5368734 5368732 5368733 5368732 5368731 0 10737418 10737418 999999 5368721 5368720 5368721 5368722 5368724 5368725 5368724 5368723 5368720 5368719 5368718 5368719 5368714 5368713 5368712 5368713 5368717 5368718 5368719 5368718 5368730 5368731 5368730 5368729 
5368709 5368709 5368709 5368709 5368709 5368709 5368709 5368709 5368709 5368709 5368722 5368721 5368720 5368721 5368728 5368729 5368728 5368727 5368725 5368726 5368725 5368724 5368722 5368723 5368722 5368721 999999 0 10737418 10737418 5368727 5368728 5368727 5368726 5368729 5368730 5368729 5368728 5368723 5368724 5368723 5368722 5368714 5368715 5368714 5368713 5368723 5368724 5368723 5368722 
5368709 5368709 5368709 5368709 5368709 5368709 5368709 5368709 5368709 5368709 5368721 5368720 5368721 5368722 5368727 5368728 5368729 5368728 5368724 5368725 5368726 5368725 5368721 5368722 5368721 5368720 10737418 999999 0 10737418 5368726 5368727 5368726 5368725 5368728 5368729 5368728 5368727 5368722 5368723 5368722 5368721 5368713 5368714 5368713 5368712 5368722 5368723 5368724 5368723 
5368709 5368709 5368709 5368709 5368709 5368709 5368709 5368709 5368709 5368709 5368722 5368721 5368722 5368723 5368726 5368727 5368728 5368727 5368723 5368724 5368725 5368724 5368722 5368721 5368720 5368721 10737418 10737418 999999 0 5368727 5368726 5368725 5368726 5368729 5368728 5368727 5368728 5368723 5368722 5368721 5368722 5368714 5368713 5368712 5368713 5368721 5368722 5368723 5368722 
5368709 5368709 5368709 5368709 5368709 5368709 5368709 5368709 5368709 5368709 5368723 5368722 5368721 5368722 5368727 5368728 5368727 5368726 5368724 5368725 5368724 5368723 5368723 5368722 5368721 5368722 0 10737418 10737418 999999 5368728 5368727 5368726 5368727 5368730 5368729 5368728 5368729 5368724 5368723 5368722 5368723 5368715 5368714 5368713 5368714 5368722 5368723 5368722 5368721 
5368709 5368709 5368709 5368709 5368709 5368709 5368709 5368709 5368709 5368709 5368731 5368732 5368733 5368732 5368723 5368724 5368723 5368722 5368720 5368721 5368720 5368719 5368725 5368724 5368723 5368724 5368725 5368726 5368727 5368726 999999 0 10737418 10737418 5368720 5368719 5368718 5368719 5368726 5368725 5368724 5368725 5368723 5368724 5368725 5368724 5368724 5368725 5368726 5368725 
5368709 5368709 5368709 5368709 5368709 5368709 5368709 5368709 5368709 5368709 5368732 5368733 5368734 5368733 5368722 5368723 5368724 5368723 5368719 5368720 5368721 5368720 5368724 5368723 5368724 5368725 5368726 5368727 5368728 5368727 10737418 999999 0 10737418 5368719 5368718 5368719 5368720 5368725 5368724 5368725 5368726 5368724 5368725 5368726 5368725 5368725 5368726 5368727 5368726 
5368709 5368709 5368709 5368709 5368709 5368709 5368709 5368709 5368709 5368709 5368733 5368732 5368733 5368734 5368721 5368722 5368723 5368722 5368718 5368719 5368720 5368719 5368725 5368724 5368725 5368726 5368727 5368726 5368727 5368728 10737418 10737418 999999 0 5368720 5368719 5368720 5368721 5368726 5368725 5368726 5368727 5368725 5368724 5368725 5368726 5368726 5368725 5368726 5368727 
5368709 5368709 5368709 5368709 5368709 5368709 5368709 5368709 5368709 5368709 5368732 5368731 5368732 5368733 5368722 5368723 5368722 5368721 5368719 5368720 5368719 5368718 5368726 5368725 5368724 5368725 5368726 5368725 5368726 5368727 0 10737418 10737418 999999 5368721 5368720 5368719 5368720 5368727 5368726 5368725 5368726 5368724 5368723 5368724 5368725 5368725 5368724 5368725 5368726 
5368709 5368709 5368709 5368709 5368709 5368709 5368709 5368709 5368709 5368709 5368733 5368734 5368735 5368734 5368731 5368732 5368731 5368730 5368728 5368729 5368728 5368727 5368717 5368718 5368719 5368718 5368727 5368728 5368729 5368728 5368720 5368721 5368720 5368719 999999 0 10737418 10737418 5368716 5368715 5368716 5368717 5368725 5368726 5368727 5368726 5368726 5368727 5368728 5368727 
5368709 5368709 5368709 5368709 5368709 5368709 5368709 5368709 5368709 5368709 5368734 5368735 5368736 5368735 5368730 5368731 5368732 5368731 5368727 5368728 5368729 5368728 5368718 5368719 5368720 5368719 5368728 5368729 5368730 5368729 5368719 5368720 5368721 5368720 10737418 999999 0 10737418 5368717 5368716 5368717 5368718 5368726 5368727 5368728 5368727 5368727 5368728 5368729 5368728 
5368709 5368709 5368709 5368709 5368709 5368709 5368709 5368709 5368709 5368709 5368735 5368734 5368735 5368736 5368729 5368730 5368731 5368730 5368726 5368727 5368728 5368727 5368719 5368718 5368719 5368720 5368729 5368728 5368729 5368730 5368718 5368719 5368720 5368719 10737418 10737418 999999 0 5368718 5368717 5368718 5368719 5368727 5368726 5368727 5368728 5368728 5368727 5368728 5368729 
5368709 5368709 5368709 5368709 5368709 5368709 5368709 5368709 5368709 5368709 5368734 5368733 5368734 5368735 5368730 5368731 5368730 5368729 5368727 5368728 5368727 5368726 5368718 5368717 5368718 5368719 5368728 5368727 5368728 5368729 5368719 5368720 5368719 5368718 0 10737418 10737418 999999 5368717 5368716 5368717 5368718 5368726 5368725 5368726 5368727 5368727 5368726 5368727 5368728 
5368709 5368709 5368709 5368709 5368709 5368709 5368709 5368709 5368709 5368709 5368727 5368728 5368729 5368728 5368737 5368738 5368737 5368736 5368734 5368735 5368734 5368733 5368711 5368712 5368713 5368712 5368721 5368722 5368723 5368722 5368726 5368727 5368726 5368725 5368718 5368719 5368718 5368717 999999 0 10737418 10737418 5368719 5368720 5368721 5368720 5368732 5368733 5368732 5368731 
5368709 5368709 5368709 5368709 5368709 5368709 5368709 5368709 5368709 5368709 5368728 5368729 5368730 5368729 5368736 5368737 5368738 5368737 5368733 5368734 5368735 5368734 5368712 5368713 5368714 5368713 5368722 5368723 5368724 5368723 5368725 5368726 5368727 5368726 5368717 5368718 5368717 5368716 10737418 999999 0 10737418 5368720 5368721 5368722 5368721 5368731 5368732 5368733 5368732 
5368709 5368709 5368709 5368709 5368709 5368709 5368709 5368709 5368709 5368709 5368729 5368728 5368729 5368730 5368735 5368736 5368737 5368736 5368732 5368733 5368734 5368733 5368711 5368712 5368713 5368712 5368723 5368722 5368723 5368724 5368724 5368725 5368726 5368725 5368716 5368717 5368716 5368715 10737418 10737418 999999 0 5368719 5368720 5368721 5368720 5368730 5368731 5368732 5368731 
5368709 5368709 5368709 5368709 5368709 5368709 5368709 5368709 5368709 5368709 5368728 5368727 5368728 5368729 5368736 5368737 5368736 5368735 5368733 5368734 5368733 5368732 5368710 5368711 5368712 5368711 5368722 5368721 5368722 5368723 5368725 5368726 5368725 5368724 5368717 5368718 5368717 5368716 0 10737418 10737418 999999 5368718 5368719 5368720 5368719 5368731 5368732 5368731 5368730 
5368709 5368709 5368709 5368709 5368709 5368709 5368709 5368709 5368709 5368709 5368722 5368721 5368720 5368721 5368728 5368729 5368728 5368727 5368725 5368726 5368725 5368724 5368720 5368719 5368718 5368719 5368712 5368713 5368714 5368713 5368725 5368726 5368725 5368724 5368727 5368728 5368727 5368726 5368721 5368720 5368719 5368720 999999 0 10737418 10737418 5368723 5368724 5368723 5368722 
5368709 5368709 5368709 5368709 5368709 5368709 5368709 5368709 5368709 5368709 5368721 5368720 5368721 5368722 5368727 5368728 5368729 5368728 5368724 5368725 5368726 5368725 5368719 5368718 5368717 5368718 5368713 5368714 5368715 5368714 5368724 5368725 5368724 5368723 5368726 5368727 5368726 5368725 5368720 5368719 5368718 5368719 10737418 999999 0 10737418 5368722 5368723 5368724 5368723 
5368709 5368709 5368709 5368709 5368709 5368709 5368709 5368709 5368709 5368709 5368722 5368721 5368722 5368723 5368726 5368727 5368728 5368727 5368723 5368724 5368725 5368724 5368720 5368719 5368718 5368719 5368714 5368713 5368714 5368715 5368725 5368724 5368723 5368724 5368727 5368726 5368725 5368726 5368721 5368720 5368719 5368720 10737418 10737418 999999 0 5368721 5368722 5368723 5368722 
5368709 5368709 5368709 5368709 5368709 5368709 5368709 5368709 5368709 5368709 5368723 5368722 5368721 5368722 5368727 5368728 5368727 5368726 5368724 5368725 5368724 5368723 5368721 5368720 5368719 5368720 5368713 5368712 5368713 5368714 5368726 5368725 5368724 5368725 5368728 5368727 5368726 5368727 5368722 5368721 5368720 5368721 0 10737418 10737418 999999 5368722 5368723 5368722 5368721 
5368709 5368709 5368709 5368709 5368709 5368709 5368709 5368709 5368709 5368709 5368733 5368732 5368731 5368732 5368717 5368718 5368717 5368716 5368722 5368723 5368722 5368721 5368731 5368730 5368729 5368730 5368723 5368722 5368721 5368722 5368726 5368727 5368726 5368725 5368728 5368729 5368728 5368727 5368732 5368731 5368730 5368731 5368723 5368722 5368721 5368722 999999 0 10737418 10737418 
5368709 5368709 5368709 5368709 5368709 5368709 5368709 5368709 5368709 5368709 5368732 5368731 5368732 5368733 5368716 5368717 5368716 5368715 5368721 5368722 5368721 5368720 5368730 5368729 5368730 5368731 5368722 5368721 5368722 5368723 5368725 5368726 5368725 5368724 5368727 5368728 5368727 5368726 5368731 5368730 5368731 5368732 5368722 5368721 5368722 5368723 10737418 999999 0 10737418 
5368709 5368709 5368709 5368709 5368709 5368709 5368709 5368709 5368709 5368709 5368733 5368732 5368733 5368734 5368715 5368716 5368715 5368714 5368722 5368721 5368720 5368721 5368731 5368730 5368731 5368732 5368723 5368722 5368723 5368724 5368726 5368725 5368724 5368725 5368728 5368727 5368726 5368727 5368732 5368731 5368732 5368733 5368723 5368722 5368723 5368724 10737418 10737418 999999 0 
5368709 5368709 5368709 5368709 5368709 5368709 5368709 5368709 5368709 5368709 5368734 5368733 5368732 5368733 5368716 5368717 5368716 5368715 5368723 5368722 5368721 5368722 5368732 5368731 5368730 5368731 5368724 5368723 5368722 5368723 5368727 5368726 5368725 5368726 5368729 5368728 5368727 5368728 5368733 5368732 5368731 5368732 5368724 5368723 5368722 5368723 0 10737418 10737418 999999 
EOF
