RobustCbss/GLKH-1.1/TMP/mEgtspf.pid5139.tour
NAME : mEgtspf.pid5139.gtsp.107374237.tour
COMMENT : Length = 107374237
COMMENT : Found by LKH [Keld Helsgaun] Wed May  7 12:08:04 2025
TYPE : TOUR
DIMENSION : 50
TOUR_SECTION
1
10
7
8
19
20
21
22
16
17
18
15
48
49
50
47
9
3
2
43
44
45
46
28
29
30
27
5
25
26
23
24
41
42
39
40
38
35
36
37
31
32
33
34
4
13
14
11
12
6
-1
EOF
